qbf_easy_train/easy_3128_UNSAT.qdimacs
p cnf 32 89
a 11 22 31 0
e 1 2 3 4 5 6 7 8 9 10 12 13 14 15 16 17 18 19 20 21 23 24 25 26 27 28 29 30 32 0
-3 1 0
-3 -2 0
-1 2 3 0
-5 3 0
-5 4 0
-3 -4 5 0
-7 2 0
-7 -1 0
-2 1 7 0
9 7 0
9 8 0
-7 -8 -9 0
11 -9 0
11 -10 0
9 10 -11 0
12 -6 0
12 11 0
6 -11 -12 0
-12 7 -13 0
12 -7 -13 0
-12 -7 13 0
12 7 13 0
11 8 -14 0
-11 -8 -14 0
11 -8 14 0
-11 8 14 0
14 12 -15 0
-14 -12 -15 0
14 -12 15 0
-14 12 15 0
-16 13 0
-16 15 0
-13 -15 16 0
-18 17 0
-18 7 0
-17 -7 18 0
19 8 0
19 -18 0
-8 18 -19 0
-20 -9 0
-20 -19 0
9 19 20 0
-2 10 -21 0
2 -10 -21 0
-2 -10 21 0
2 10 21 0
-17 8 -22 0
17 -8 -22 0
-17 -8 22 0
17 8 22 0
23 -17 0
23 -3 0
17 3 -23 0
24 -10 0
24 -7 0
10 7 -24 0
-24 -25 -26 0
24 25 -26 0
-24 25 26 0
24 -25 26 0
27 23 0
27 26 0
-23 -26 -27 0
-22 27 -28 0
22 -27 -28 0
-22 -27 28 0
22 27 28 0
29 21 0
29 -28 0
-21 28 -29 0
-30 20 0
-30 -29 0
-20 29 30 0
16 30 -31 0
-16 -30 -31 0
16 -30 31 0
-16 30 31 0
32 5 0
32 31 0
-5 -31 -32 0
-28 10 9 -13 -14 0
21 -15 30 8 0
3 -21 -10 -12 25 -13 0
22 -20 -1 -19 -26 32 27 0
-32 -28 25 17 -4 0
10 -16 -22 4 -8 14 3 0
6 10 -13 14 26 9 -17 0
19 17 -12 -13 0
32 0
