sat_easy_train/easy_3128_UNSAT.dimacs
p cnf 139 468
-1 -2 -3 0
1 2 -3 0
-1 2 3 0
1 -2 3 0
4 5 -6 0
-4 -5 -6 0
4 -5 6 0
-4 5 6 0
-6 7 -8 0
6 -7 -8 0
-6 -7 8 0
6 7 8 0
9 3 0
9 8 0
-3 -8 -9 0
11 -10 0
11 7 0
10 -7 -11 0
12 9 0
12 11 0
-9 -11 -12 0
-2 14 -15 0
2 -14 -15 0
-2 -14 15 0
2 14 15 0
-16 -13 0
-16 -15 0
13 15 16 0
18 16 0
18 -17 0
-16 17 -18 0
12 -18 -19 0
-12 18 -19 0
12 18 19 0
-12 -18 19 0
-21 -20 0
-21 7 0
20 -7 21 0
-23 4 0
-23 4 0
-4 23 0
24 -2 0
24 23 0
2 -23 -24 0
25 6 0
25 1 0
-6 -1 -25 0
-24 25 -26 0
24 -25 -26 0
-24 -25 26 0
24 25 26 0
-22 -26 -27 0
22 26 -27 0
-22 26 27 0
22 -26 27 0
-8 27 -28 0
8 -27 -28 0
-8 -27 28 0
8 27 28 0
-29 21 0
-29 28 0
-21 -28 29 0
30 29 0
30 -17 0
-29 17 -30 0
31 20 0
31 -14 0
-20 14 -31 0
-22 -20 -32 0
22 20 -32 0
-22 20 32 0
22 -20 32 0
33 -32 0
33 2 0
32 -2 -33 0
-33 -20 -34 0
33 20 -34 0
-33 20 34 0
33 -20 34 0
35 31 0
35 34 0
-31 -34 -35 0
36 3 -37 0
-36 -3 -37 0
36 -3 37 0
-36 3 37 0
-38 31 0
-38 -20 0
-31 20 38 0
-39 31 0
-39 38 0
-31 -38 39 0
40 -39 0
40 21 0
39 -21 -40 0
37 40 -41 0
-37 -40 -41 0
37 -40 41 0
-37 40 41 0
42 -35 0
42 -41 0
35 41 -42 0
43 39 0
43 -15 0
-39 15 -43 0
42 43 -44 0
-42 -43 -44 0
42 -43 44 0
-42 43 44 0
45 -4 0
45 -39 0
4 39 -45 0
-46 -2 0
-46 -45 0
2 45 46 0
48 -17 0
48 -47 0
17 47 -48 0
49 -48 0
49 -7 0
48 7 -49 0
10 22 -50 0
-10 -22 -50 0
10 -22 50 0
-10 22 50 0
51 -7 0
51 50 0
7 -50 -51 0
52 -51 0
52 -34 0
51 34 -52 0
49 52 -53 0
-49 -52 -53 0
49 -52 53 0
-49 52 53 0
-54 -46 0
-54 -53 0
46 53 54 0
-55 -32 0
-55 -23 0
32 23 55 0
-56 -55 0
-56 -2 0
55 2 56 0
-57 -54 0
-57 -56 0
54 56 57 0
58 44 0
58 57 0
-44 -57 -58 0
59 -30 0
59 -58 0
30 58 -59 0
19 59 -60 0
-19 -59 -60 0
19 -59 60 0
-19 59 60 0
61 48 0
61 -52 0
-48 52 -61 0
-61 -62 0
61 -62 0
60 62 -63 0
-60 -62 -63 0
60 -62 63 0
-60 62 63 0
-64 10 -65 0
64 -10 -65 0
-64 -10 65 0
64 10 65 0
-66 64 0
-66 6 0
-64 -6 66 0
-67 -66 0
-67 31 0
66 -31 67 0
-68 -32 0
-68 -64 0
32 64 68 0
69 -67 0
69 -68 0
67 68 -69 0
70 65 0
70 -69 0
-65 69 -70 0
50 -22 -71 0
-50 22 -71 0
50 22 71 0
-50 -22 71 0
-72 -11 0
-72 71 0
11 -71 72 0
70 -72 -73 0
-70 72 -73 0
70 72 73 0
-70 -72 73 0
74 6 0
74 17 0
-6 -17 -74 0
-75 74 0
-75 32 0
-74 -32 75 0
76 -32 0
76 -10 0
32 10 -76 0
77 -76 0
77 -50 0
76 50 -77 0
78 26 0
78 -45 0
-26 45 -78 0
-79 36 0
-79 -50 0
-36 50 79 0
-80 -64 0
-80 -79 0
64 79 80 0
81 78 0
81 -80 0
-78 80 -81 0
82 -77 0
82 81 0
77 -81 -82 0
83 -75 0
83 -82 0
75 82 -83 0
-84 -73 0
-84 -83 0
73 83 84 0
85 -16 0
85 15 0
16 -15 -85 0
-86 38 0
-86 71 0
-38 -71 86 0
-87 50 0
-87 -22 0
-50 22 87 0
87 88 0
-87 88 0
-86 88 -89 0
86 -88 -89 0
-86 -88 89 0
86 88 89 0
90 -14 0
90 -15 0
14 15 -90 0
91 -89 0
91 -90 0
89 90 -91 0
92 85 0
92 91 0
-85 -91 -92 0
-94 74 0
-94 80 0
-74 -80 94 0
-95 93 0
-95 94 0
-93 -94 95 0
96 -92 0
96 -95 0
92 95 -96 0
84 -96 -97 0
-84 96 -97 0
84 96 97 0
-84 -96 97 0
98 -28 0
98 -74 0
28 74 -98 0
-99 -21 0
-99 2 0
21 -2 99 0
-98 99 -100 0
98 -99 -100 0
-98 -99 100 0
98 99 100 0
101 -2 0
101 49 0
2 -49 -101 0
2 -66 -102 0
-2 66 -102 0
2 66 102 0
-2 -66 102 0
76 -102 -103 0
-76 102 -103 0
76 102 103 0
-76 -102 103 0
-104 101 0
-104 103 0
-101 -103 104 0
106 34 0
106 105 0
-34 -105 -106 0
104 106 -107 0
-104 -106 -107 0
104 -106 107 0
-104 106 107 0
108 80 0
108 -38 0
-80 38 -108 0
-108 3 -109 0
108 -3 -109 0
-108 -3 109 0
108 3 109 0
-52 -28 -110 0
52 28 -110 0
-52 28 110 0
52 -28 110 0
111 109 0
111 -110 0
-109 110 -111 0
-112 25 0
-112 -21 0
-25 21 112 0
113 -111 0
113 112 0
111 -112 -113 0
-23 -74 -114 0
23 74 -114 0
-23 74 114 0
23 -74 114 0
115 3 0
115 -74 0
-3 74 -115 0
116 115 0
116 -50 0
-115 50 -116 0
116 5 -117 0
-116 -5 -117 0
116 -5 117 0
-116 5 117 0
-114 117 -118 0
114 -117 -118 0
-114 -117 118 0
114 117 118 0
-14 4 -119 0
14 -4 -119 0
-14 -4 119 0
14 4 119 0
120 119 0
120 25 0
-119 -25 -120 0
121 -118 0
121 120 0
118 -120 -121 0
122 113 0
122 121 0
-113 -121 -122 0
107 122 -123 0
-107 -122 -123 0
107 -122 123 0
-107 122 123 0
-124 -100 0
-124 -123 0
100 123 124 0
97 124 -125 0
-97 -124 -125 0
97 -124 125 0
-97 124 125 0
-126 63 0
-126 125 0
-63 -125 126 0
31 -27 -127 0
-31 27 -127 0
31 27 127 0
-31 -27 127 0
128 10 0
128 115 0
-10 -115 -128 0
128 64 -129 0
-128 -64 -129 0
128 -64 129 0
-128 64 129 0
130 -127 0
130 129 0
127 -129 -130 0
119 29 -131 0
-119 -29 -131 0
119 -29 131 0
-119 29 131 0
49 25 -132 0
-49 -25 -132 0
49 -25 132 0
-49 25 132 0
133 -131 0
133 -132 0
131 132 -133 0
134 -130 0
134 -133 0
130 133 -134 0
135 -15 0
135 9 0
15 -9 -135 0
14 135 -136 0
-14 -135 -136 0
14 -135 136 0
-14 135 136 0
-137 136 0
-137 -71 0
-136 71 137 0
-138 -134 0
-138 -137 0
134 137 138 0
-139 126 0
-139 138 0
-126 -138 139 0
29 -75 94 0
-68 -50 0
-83 104 -114 11 125 131 0
104 79 0
-138 25 -9 -87 -49 -52 0
-55 -109 86 -74 108 -40 0
11 134 132 -98 88 -9 0
-87 -80 64 115 -113 0
69 32 -74 0
69 -70 0
-15 -3 -60 129 0
-88 -96 -28 25 0
-58 30 -132 95 0
62 60 7 45 0
-117 -80 90 -130 87 25 0
-28 -123 -111 -7 0
-135 -80 -43 0
-68 -22 -135 -45 12 134 0
-125 -114 0
45 14 58 132 -35 0
1 111 -71 41 -136 0
-118 -11 103 0
-38 -31 0
-14 19 36 0
-60 -56 121 -30 -106 0
-12 138 -136 72 86 0
-35 -58 -41 -134 -136 77 0
-96 118 -137 0
100 24 29 -115 0
76 135 -137 32 0
-79 22 0
-46 -20 -64 -133 99 0
14 38 -40 -63 -119 0
-61 113 -120 0
118 20 27 0
128 96 -135 -80 -43 -76 0
-7 -119 -131 -111 78 0
51 -71 -12 106 -92 104 0
5 -117 0
66 59 126 -105 41 -90 0
-9 39 -94 121 0
124 3 -28 126 -64 78 0
25 -100 123 0
68 -40 -4 0
-6 -39 121 32 0
88 114 43 111 0
91 -114 -62 0
104 134 25 137 47 0
-3 6 -33 0
-11 -138 -76 -23 0
-51 -53 -110 0
64 -136 -135 -119 62 0
138 33 -57 -13 -83 89 0
-109 118 129 96 -133 -90 0
118 71 -2 0
75 93 -92 28 0
39 123 -23 -28 -19 0
-128 -111 78 97 0
-121 -16 0
54 -127 117 -108 -41 0
131 139 -116 -94 0
139 0
